c Random generated cnf formula, satisfiable: false
p cnf 10 50
-3 9 -6 0
6 -7 4 0
-2 -6 4 0
-3 -5 7 0
-5 2 3 0
-4 7 -9 0
2 5 -10 0
-2 5 8 0
1 -8 -7 0
4 7 -1 0
6 -8 7 0
-9 -10 6 0
-6 -5 4 0
-10 -3 -9 0
3 -5 -1 0
10 9 -3 0
-5 2 6 0
-1 8 9 0
10 -5 -1 0
-8 -5 -2 0
-1 -9 -6 0
7 -10 -5 0
8 2 -1 0
9 -8 -7 0
-7 4 -3 0
-9 10 -3 0
-9 -6 3 0
-10 -4 6 0
3 -2 9 0
-1 -6 -4 0
2 1 4 0
2 3 8 0
-5 -1 -8 0
7 4 6 0
-7 6 4 0
2 -5 4 0
-7 -6 -10 0
5 10 7 0
3 -8 -6 0
-8 -6 5 0
4 9 5 0
6 -7 -2 0
-9 -7 4 0
8 -1 -3 0
-3 -7 -10 0
-10 -2 -4 0
7 2 8 0
-5 -7 10 0
-2 5 4 0
-4 3 -9 0
